10
# CELL(abcABC):   30.00000    30.00000    30.00000    90.00000    90.00000    90.00000  Step:           0  Bead:       0 positions{angstrom}  cell{angstrom}
       H  9.90000e-01  0.00000e+00  0.00000e+00
       C -4.23000e-01  1.27200e+00  0.00000e+00
       O  2.85000e-01  2.25300e+00  0.00000e+00
       O  0.00000e+00  0.00000e+00  0.00000e+00
       H -1.52000e+00  1.21700e+00  0.00000e+00
       H  2.01500e+00  2.25400e+00  0.00000e+00
       C  3.42700e+00  9.82000e-01  0.00000e+00
       O  2.72000e+00  0.00000e+00  0.00000e+00
       O  3.00500e+00  2.25400e+00  0.00000e+00
       H  4.52400e+00  1.03700e+00  0.00000e+00
